language Essence 1.3

letting blksize_delta be
        function(1 --> 9, 2 --> 9, 3 --> 9, 4 --> 9, 5 --> 9, 6 --> 9, 7 --> 9, 8 --> 9, 9 --> 9, 10 --> 9, 11 --> 9,
                 12 --> 9, 13 --> 9, 14 --> 9, 15 --> 9, 16 --> 9, 17 --> 9, 18 --> 9, 19 --> 9, 20 --> 9, 21 --> 9,
                 22 --> 9, 23 --> 9, 24 --> 9, 25 --> 9, 26 --> 9, 27 --> 9, 28 --> 9, 29 --> 9, 30 --> 9, 31 --> 9,
                 32 --> 9, 33 --> 9, 34 --> 9, 35 --> 10, 36 --> 9, 37 --> 9, 38 --> 9, 39 --> 9, 40 --> 9)
letting maxcars be
        function(1 --> 8, 2 --> 8, 3 --> 8, 4 --> 8, 5 --> 8, 6 --> 8, 7 --> 8, 8 --> 8, 9 --> 8, 10 --> 8, 11 --> 8,
                 12 --> 10, 13 --> 10, 14 --> 8, 15 --> 8, 16 --> 8, 17 --> 8, 18 --> 8, 19 --> 8, 20 --> 8, 21 --> 8,
                 22 --> 10, 23 --> 8, 24 --> 8, 25 --> 8, 26 --> 10, 27 --> 8, 28 --> 10, 29 --> 8, 30 --> 8, 31 --> 8,
                 32 --> 8, 33 --> 8, 34 --> 8, 35 --> 8, 36 --> 8, 37 --> 8, 38 --> 8, 39 --> 8, 40 --> 8)
letting n_cars be 160
letting n_classes be 19
letting n_options be 40
letting quantity be
        function(1 --> 4, 2 --> 4, 3 --> 4, 4 --> 4, 5 --> 4, 6 --> 4, 7 --> 5, 8 --> 10, 9 --> 9, 10 --> 4, 11 --> 4,
                 12 --> 4, 13 --> 10, 14 --> 15, 15 --> 15, 16 --> 15, 17 --> 15, 18 --> 15, 19 --> 15)
letting usage be
        relation((1, 3), (1, 16), (1, 21), (1, 22), (2, 1), (2, 4), (2, 5), (2, 7), (2, 11), (2, 14), (2, 17), (2, 21),
                 (2, 32), (2, 37), (2, 39), (2, 40), (3, 13), (3, 25), (4, 11), (4, 17), (4, 18), (4, 23), (4, 24),
                 (4, 32), (4, 39), (5, 13), (5, 19), (5, 27), (5, 32), (5, 39), (6, 6), (6, 31), (6, 33), (7, 1),
                 (7, 19), (7, 27), (7, 38), (8, 7), (8, 28), (8, 32), (8, 34), (9, 14), (9, 18), (9, 25), (10, 1),
                 (10, 22), (10, 23), (11, 17), (11, 27), (11, 30), (11, 34), (12, 1), (13, 19), (13, 26), (14, 6),
                 (14, 7), (14, 27), (14, 36), (15, 2), (15, 8), (15, 9), (15, 10), (15, 12), (15, 15), (15, 19),
                 (15, 20), (15, 26), (15, 29), (15, 35), (16, 3), (16, 16), (16, 22), (16, 30), (17, 3), (17, 6),
                 (17, 14), (17, 21), (17, 30), (17, 34), (17, 40), (18, 4), (18, 5), (18, 16), (18, 17), (18, 30),
                 (18, 33), (19, 18), (19, 24), (19, 36), (19, 37), (19, 39), (19, 40))
$ Visualisation for usage
$  1  3
$  1 16
$  1 21
$  1 22
$  2  1
$  2  4
$  2  5
$  2  7
$  2 11
$  2 14
$  2 17
$  2 21
$  2 32
$  2 37
$  2 39
$  2 40
$  3 13
$  3 25
$  4 11
$  4 17
$  4 18
$  4 23
$  4 24
$  4 32
$  4 39
$  5 13
$  5 19
$  5 27
$  5 32
$  5 39
$  6  6
$  6 31
$  6 33
$  7  1
$  7 19
$  7 27
$  7 38
$  8  7
$  8 28
$  8 32
$  8 34
$  9 14
$  9 18
$  9 25
$ 10  1
$ 10 22
$ 10 23
$ 11 17
$ 11 27
$ 11 30
$ 11 34
$ 12  1
$ 13 19
$ 13 26
$ 14  6
$ 14  7
$ 14 27
$ 14 36
$ 15  2
$ 15  8
$ 15  9
$ 15 10
$ 15 12
$ 15 15
$ 15 19
$ 15 20
$ 15 26
$ 15 29
$ 15 35
$ 16  3
$ 16 16
$ 16 22
$ 16 30
$ 17  3
$ 17  6
$ 17 14
$ 17 21
$ 17 30
$ 17 34
$ 17 40
$ 18  4
$ 18  5
$ 18 16
$ 18 17
$ 18 30
$ 18 33
$ 19 18
$ 19 24
$ 19 36
$ 19 37
$ 19 39
$ 19 40

